c description: Graph pigeonhole principle formula on fast_gnp_random_graph(20,10,0.5)
c generator: CNFgen (0.9.0)
c copyright: (C) 2012-2020 Massimo Lauria <massimo.lauria@uniroma1.it>
c url: https://massimolauria.net/cnfgen
c
p cnf 108 584
1 2 3 4 0
5 6 7 8 9 0
10 11 12 13 14 15 16 17 0
18 19 20 21 0
22 23 24 25 26 0
27 28 29 30 31 0
32 33 34 35 36 37 38 0
39 40 41 42 0
43 44 45 46 0
47 48 49 0
50 51 52 53 54 0
55 56 57 58 0
59 60 61 62 63 0
64 65 66 67 68 69 0
70 71 72 73 74 0
75 76 77 78 79 80 81 82 0
83 84 85 86 87 88 89 90 91 0
92 93 94 95 96 97 98 99 0
100 101 102 0
103 104 105 106 107 108 0
-5 -10 0
-5 -27 0
-5 -32 0
-5 -50 0
-5 -55 0
-5 -64 0
-5 -70 0
-5 -92 0
-5 -103 0
-10 -27 0
-10 -32 0
-10 -50 0
-10 -55 0
-10 -64 0
-10 -70 0
-10 -92 0
-10 -103 0
-27 -32 0
-27 -50 0
-27 -55 0
-27 -64 0
-27 -70 0
-27 -92 0
-27 -103 0
-32 -50 0
-32 -55 0
-32 -64 0
-32 -70 0
-32 -92 0
-32 -103 0
-50 -55 0
-50 -64 0
-50 -70 0
-50 -92 0
-50 -103 0
-55 -64 0
-55 -70 0
-55 -92 0
-55 -103 0
-64 -70 0
-64 -92 0
-64 -103 0
-70 -92 0
-70 -103 0
-92 -103 0
-1 -11 0
-1 -22 0
-1 -28 0
-1 -33 0
-1 -47 0
-1 -51 0
-1 -56 0
-1 -59 0
-1 -71 0
-1 -75 0
-1 -83 0
-1 -93 0
-1 -104 0
-11 -22 0
-11 -28 0
-11 -33 0
-11 -47 0
-11 -51 0
-11 -56 0
-11 -59 0
-11 -71 0
-11 -75 0
-11 -83 0
-11 -93 0
-11 -104 0
-22 -28 0
-22 -33 0
-22 -47 0
-22 -51 0
-22 -56 0
-22 -59 0
-22 -71 0
-22 -75 0
-22 -83 0
-22 -93 0
-22 -104 0
-28 -33 0
-28 -47 0
-28 -51 0
-28 -56 0
-28 -59 0
-28 -71 0
-28 -75 0
-28 -83 0
-28 -93 0
-28 -104 0
-33 -47 0
-33 -51 0
-33 -56 0
-33 -59 0
-33 -71 0
-33 -75 0
-33 -83 0
-33 -93 0
-33 -104 0
-47 -51 0
-47 -56 0
-47 -59 0
-47 -71 0
-47 -75 0
-47 -83 0
-47 -93 0
-47 -104 0
-51 -56 0
-51 -59 0
-51 -71 0
-51 -75 0
-51 -83 0
-51 -93 0
-51 -104 0
-56 -59 0
-56 -71 0
-56 -75 0
-56 -83 0
-56 -93 0
-56 -104 0
-59 -71 0
-59 -75 0
-59 -83 0
-59 -93 0
-59 -104 0
-71 -75 0
-71 -83 0
-71 -93 0
-71 -104 0
-75 -83 0
-75 -93 0
-75 -104 0
-83 -93 0
-83 -104 0
-93 -104 0
-2 -6 0
-2 -12 0
-2 -18 0
-2 -23 0
-2 -34 0
-2 -39 0
-2 -43 0
-2 -60 0
-2 -65 0
-2 -72 0
-2 -76 0
-2 -84 0
-2 -94 0
-6 -12 0
-6 -18 0
-6 -23 0
-6 -34 0
-6 -39 0
-6 -43 0
-6 -60 0
-6 -65 0
-6 -72 0
-6 -76 0
-6 -84 0
-6 -94 0
-12 -18 0
-12 -23 0
-12 -34 0
-12 -39 0
-12 -43 0
-12 -60 0
-12 -65 0
-12 -72 0
-12 -76 0
-12 -84 0
-12 -94 0
-18 -23 0
-18 -34 0
-18 -39 0
-18 -43 0
-18 -60 0
-18 -65 0
-18 -72 0
-18 -76 0
-18 -84 0
-18 -94 0
-23 -34 0
-23 -39 0
-23 -43 0
-23 -60 0
-23 -65 0
-23 -72 0
-23 -76 0
-23 -84 0
-23 -94 0
-34 -39 0
-34 -43 0
-34 -60 0
-34 -65 0
-34 -72 0
-34 -76 0
-34 -84 0
-34 -94 0
-39 -43 0
-39 -60 0
-39 -65 0
-39 -72 0
-39 -76 0
-39 -84 0
-39 -94 0
-43 -60 0
-43 -65 0
-43 -72 0
-43 -76 0
-43 -84 0
-43 -94 0
-60 -65 0
-60 -72 0
-60 -76 0
-60 -84 0
-60 -94 0
-65 -72 0
-65 -76 0
-65 -84 0
-65 -94 0
-72 -76 0
-72 -84 0
-72 -94 0
-76 -84 0
-76 -94 0
-84 -94 0
-13 -40 0
-13 -44 0
-13 -57 0
-13 -61 0
-13 -66 0
-13 -77 0
-13 -85 0
-13 -100 0
-13 -105 0
-40 -44 0
-40 -57 0
-40 -61 0
-40 -66 0
-40 -77 0
-40 -85 0
-40 -100 0
-40 -105 0
-44 -57 0
-44 -61 0
-44 -66 0
-44 -77 0
-44 -85 0
-44 -100 0
-44 -105 0
-57 -61 0
-57 -66 0
-57 -77 0
-57 -85 0
-57 -100 0
-57 -105 0
-61 -66 0
-61 -77 0
-61 -85 0
-61 -100 0
-61 -105 0
-66 -77 0
-66 -85 0
-66 -100 0
-66 -105 0
-77 -85 0
-77 -100 0
-77 -105 0
-85 -100 0
-85 -105 0
-100 -105 0
-19 -29 0
-19 -35 0
-19 -52 0
-19 -73 0
-19 -78 0
-19 -86 0
-19 -95 0
-29 -35 0
-29 -52 0
-29 -73 0
-29 -78 0
-29 -86 0
-29 -95 0
-35 -52 0
-35 -73 0
-35 -78 0
-35 -86 0
-35 -95 0
-52 -73 0
-52 -78 0
-52 -86 0
-52 -95 0
-73 -78 0
-73 -86 0
-73 -95 0
-78 -86 0
-78 -95 0
-86 -95 0
-3 -7 0
-3 -14 0
-3 -24 0
-3 -30 0
-3 -36 0
-3 -41 0
-3 -53 0
-3 -67 0
-3 -74 0
-3 -79 0
-3 -87 0
-3 -96 0
-3 -101 0
-3 -106 0
-7 -14 0
-7 -24 0
-7 -30 0
-7 -36 0
-7 -41 0
-7 -53 0
-7 -67 0
-7 -74 0
-7 -79 0
-7 -87 0
-7 -96 0
-7 -101 0
-7 -106 0
-14 -24 0
-14 -30 0
-14 -36 0
-14 -41 0
-14 -53 0
-14 -67 0
-14 -74 0
-14 -79 0
-14 -87 0
-14 -96 0
-14 -101 0
-14 -106 0
-24 -30 0
-24 -36 0
-24 -41 0
-24 -53 0
-24 -67 0
-24 -74 0
-24 -79 0
-24 -87 0
-24 -96 0
-24 -101 0
-24 -106 0
-30 -36 0
-30 -41 0
-30 -53 0
-30 -67 0
-30 -74 0
-30 -79 0
-30 -87 0
-30 -96 0
-30 -101 0
-30 -106 0
-36 -41 0
-36 -53 0
-36 -67 0
-36 -74 0
-36 -79 0
-36 -87 0
-36 -96 0
-36 -101 0
-36 -106 0
-41 -53 0
-41 -67 0
-41 -74 0
-41 -79 0
-41 -87 0
-41 -96 0
-41 -101 0
-41 -106 0
-53 -67 0
-53 -74 0
-53 -79 0
-53 -87 0
-53 -96 0
-53 -101 0
-53 -106 0
-67 -74 0
-67 -79 0
-67 -87 0
-67 -96 0
-67 -101 0
-67 -106 0
-74 -79 0
-74 -87 0
-74 -96 0
-74 -101 0
-74 -106 0
-79 -87 0
-79 -96 0
-79 -101 0
-79 -106 0
-87 -96 0
-87 -101 0
-87 -106 0
-96 -101 0
-96 -106 0
-101 -106 0
-8 -15 0
-8 -25 0
-8 -31 0
-8 -48 0
-8 -58 0
-8 -62 0
-8 -68 0
-8 -80 0
-8 -88 0
-8 -97 0
-8 -107 0
-15 -25 0
-15 -31 0
-15 -48 0
-15 -58 0
-15 -62 0
-15 -68 0
-15 -80 0
-15 -88 0
-15 -97 0
-15 -107 0
-25 -31 0
-25 -48 0
-25 -58 0
-25 -62 0
-25 -68 0
-25 -80 0
-25 -88 0
-25 -97 0
-25 -107 0
-31 -48 0
-31 -58 0
-31 -62 0
-31 -68 0
-31 -80 0
-31 -88 0
-31 -97 0
-31 -107 0
-48 -58 0
-48 -62 0
-48 -68 0
-48 -80 0
-48 -88 0
-48 -97 0
-48 -107 0
-58 -62 0
-58 -68 0
-58 -80 0
-58 -88 0
-58 -97 0
-58 -107 0
-62 -68 0
-62 -80 0
-62 -88 0
-62 -97 0
-62 -107 0
-68 -80 0
-68 -88 0
-68 -97 0
-68 -107 0
-80 -88 0
-80 -97 0
-80 -107 0
-88 -97 0
-88 -107 0
-97 -107 0
-4 -9 0
-4 -16 0
-4 -20 0
-4 -37 0
-4 -45 0
-4 -63 0
-4 -81 0
-4 -89 0
-9 -16 0
-9 -20 0
-9 -37 0
-9 -45 0
-9 -63 0
-9 -81 0
-9 -89 0
-16 -20 0
-16 -37 0
-16 -45 0
-16 -63 0
-16 -81 0
-16 -89 0
-20 -37 0
-20 -45 0
-20 -63 0
-20 -81 0
-20 -89 0
-37 -45 0
-37 -63 0
-37 -81 0
-37 -89 0
-45 -63 0
-45 -81 0
-45 -89 0
-63 -81 0
-63 -89 0
-81 -89 0
-17 -21 0
-17 -26 0
-17 -38 0
-17 -82 0
-17 -90 0
-17 -98 0
-21 -26 0
-21 -38 0
-21 -82 0
-21 -90 0
-21 -98 0
-26 -38 0
-26 -82 0
-26 -90 0
-26 -98 0
-38 -82 0
-38 -90 0
-38 -98 0
-82 -90 0
-82 -98 0
-90 -98 0
-42 -46 0
-42 -49 0
-42 -54 0
-42 -69 0
-42 -91 0
-42 -99 0
-42 -102 0
-42 -108 0
-46 -49 0
-46 -54 0
-46 -69 0
-46 -91 0
-46 -99 0
-46 -102 0
-46 -108 0
-49 -54 0
-49 -69 0
-49 -91 0
-49 -99 0
-49 -102 0
-49 -108 0
-54 -69 0
-54 -91 0
-54 -99 0
-54 -102 0
-54 -108 0
-69 -91 0
-69 -99 0
-69 -102 0
-69 -108 0
-91 -99 0
-91 -102 0
-91 -108 0
-99 -102 0
-99 -108 0
-102 -108 0